************************************************************************
file with basedata            : md355_.bas
initial value random generator: 1284041566
************************************************************************
projects                      :  1
jobs (incl. supersource/sink ):  22
horizon                       :  171
RESOURCES
  - renewable                 :  2   R
  - nonrenewable              :  2   N
  - doubly constrained        :  0   D
************************************************************************
PROJECT INFORMATION:
pronr.  #jobs rel.date duedate tardcost  MPM-Time
    1     20      0       17        3       17
************************************************************************
PRECEDENCE RELATIONS:
jobnr.    #modes  #successors   successors
   1        1          3           2   3   4
   2        3          3           5  13  15
   3        3          3          10  11  21
   4        3          3           6  11  12
   5        3          3          10  14  17
   6        3          3           7   8  20
   7        3          3           9  17  19
   8        3          2          10  15
   9        3          1          13
  10        3          1          18
  11        3          2          16  20
  12        3          3          13  14  18
  13        3          1          21
  14        3          2          19  20
  15        3          1          17
  16        3          1          18
  17        3          1          21
  18        3          1          19
  19        3          1          22
  20        3          1          22
  21        3          1          22
  22        1          0        
************************************************************************
REQUESTS/DURATIONS:
jobnr. mode duration  R 1  R 2  N 1  N 2
------------------------------------------------------------------------
  1      1     0       0    0    0    0
  2      1     2       9    0    6    2
         2     8       8    0    6    2
         3     9       8    0    5    2
  3      1     4       7    0    5    5
         2     8       0    9    3    4
         3    10       4    0    2    4
  4      1     1       7    0    8    9
         2     2       3    0    5    8
         3     8       0    6    4    8
  5      1     1       8    0    7    7
         2     4       6    0    4    7
         3     5       0    9    3    5
  6      1     2       0    5    4    7
         2     8       2    0    2    5
         3     8       1    0    2    6
  7      1     4       8    0    8    9
         2     7       0    5    7    7
         3    10       7    0    6    7
  8      1     5       0    4    7    5
         2     6       4    0    6    5
         3    10       0    4    5    5
  9      1     5      10    0    6    7
         2     8       9    0    6    6
         3    10       9    0    5    5
 10      1     2       0    3    7    7
         2     6       7    0    5    7
         3     9       0    3    3    6
 11      1     1       6    0    6    8
         2     2       6    0    3    8
         3    10       0    5    2    6
 12      1     8       6    0   10    6
         2     8       0    9   10    7
         3     9       0    8    9    5
 13      1     2      10    0   10    6
         2     7       8    0    9    6
         3     8       7    0    8    5
 14      1     4       0    5    4    6
         2     4       2    0    4    6
         3    10       0    4    4    3
 15      1     4       0    6    9   10
         2     9       6    0    9    6
         3    10       0    4    8    4
 16      1     2       3    0    3    8
         2     4       0    4    2    8
         3     6       0    3    2    7
 17      1     1       3    0    5    6
         2     5       3    0    4    6
         3     8       2    0    3    5
 18      1     3       0    6    7    4
         2     4       0    5    7    3
         3     8       8    0    4    2
 19      1     4       0    8    4    7
         2     5       0    3    3    7
         3     9       4    0    1    6
 20      1     3       4    0   10   10
         2     4       4    0   10    9
         3     6       3    0    9    9
 21      1     1       7    0    4    5
         2     2       7    0    4    3
         3     8       0    6    3    3
 22      1     0       0    0    0    0
************************************************************************
RESOURCEAVAILABILITIES:
  R 1  R 2  N 1  N 2
   23   21   99  110
************************************************************************
MAXIMAL LAGS:
from  to  type  delay
    1   22   ES      0
    1    2   ES      0
    2   22   ES      0
    1    3   ES      0
    3   22   ES      0
    1    4   ES      0
    4   22   ES      0
    1    5   ES      0
    5   22   ES      0
    1    6   ES      0
    6   22   ES      0
    1    7   ES      0
    7   22   ES      0
    1    8   ES      0
    8   22   ES      0
    1    9   ES      0
    9   22   ES      0
    1   10   ES      0
   10   22   ES      0
    1   11   ES      0
   11   22   ES      0
    1   12   ES      0
   12   22   ES      0
    1   13   ES      0
   13   22   ES      0
    1   14   ES      0
   14   22   ES      0
    1   15   ES      0
   15   22   ES      0
    1   16   ES      0
   16   22   ES      0
    1   17   ES      0
   17   22   ES      0
    1   18   ES      0
   18   22   ES      0
    1   19   ES      0
   19   22   ES      0
    1   20   ES      0
   20   22   ES      0
    1   21   ES      0
   21   22   ES      0
    1   22   ES      0
    2    5   SS      7
    2    5   SE      9
    5    2   SE      0
    2    5   ES      0
    2    5   EE      8
    2   13   SS      4
    2   13   SE     -2
    2   13   ES      1
    2   13   EE     -3
    2   15   SS     -8
    2   15   SE     -2
    2   15   ES     12
    2   15   EE      2
    3   10   SS    -11
    3   10   SE      1
    3   10   ES      8
    3   10   EE      5
    3   11   SS      8
    3   11   SE    -12
    3   11   ES     -8
    3   11   EE      1
    3   21   SS      6
    3   21   SE      9
    3   21   ES     -6
    3   21   EE     -5
    4    6   SS     11
    4    6   SE    -10
    4    6   ES     -1
    4    6   EE     -4
    4   11   SS     -7
    4   11   SE     10
    4   11   ES     11
    4   11   EE     -6
    4   12   SS    -12
    4   12   SE      0
    4   12   ES    -11
    4   12   EE    -11
    5   10   SS     -7
    5   10   SE     -6
    5   10   ES    -11
    5   10   EE     -7
    5   14   SS      4
    5   14   SE      1
    5   14   ES     -2
    5   14   EE      8
    5   17   SS     10
    5   17   SE     -2
    5   17   ES     10
    5   17   EE    -12
    6    7   SS      9
    6    7   SE     -2
    6    7   ES     -8
    6    7   EE     -7
    6    8   SS     -3
    6    8   SE     11
    6    8   ES     -9
    6    8   EE     -9
    6   20   SS     -3
    6   20   SE     -8
    6   20   ES    -12
    6   20   EE      0
    7    9   SS      1
    7    9   SE      3
    7    9   ES    -11
    7    9   EE     -9
    7   17   SS     -2
    7   17   SE    -10
    7   17   ES     -4
    7   17   EE     -2
    7   19   SS     11
    7   19   SE      6
    7   19   ES      6
    7   19   EE     -8
    8   10   SS    -12
    8   10   SE     -9
    8   10   ES      0
    8   10   EE      1
    8   15   SS     -5
    8   15   SE     -6
    8   15   ES     11
    8   15   EE      4
    9   13   SS     -8
    9   13   SE     -8
    9   13   ES     -8
    9   13   EE     -8
   10   18   SS     -4
   10   18   SE    -11
   10   18   ES    -11
   10   18   EE     -2
   11   16   SS     -5
   11   16   SE      6
   11   16   ES     -8
   11   16   EE     -7
   11   20   SS      9
   11   20   SE     -7
   11   20   ES    -11
   11   20   EE     -1
   12   13   SS      0
   12   13   SE     -8
   12   13   ES      8
   12   13   EE    -12
   12   14   SS     -9
   12   14   SE      9
   12   14   ES     11
   12   14   EE      7
   12   18   SS     12
   12   18   SE    -11
   12   18   ES    -10
   12   18   EE     -9
   13   21   SS     12
   13   21   SE     -6
   13   21   ES     -4
   13   21   EE      5
   14   19   SS     -3
   14   19   SE     -6
   14   19   ES     -5
   14   19   EE      6
   14   20   SS     -9
   14   20   SE     -6
   14   20   ES     -5
   14   20   EE      8
   15   17   SS     -7
   15   17   SE     -1
   15   17   ES     -7
   15   17   EE      4
   16   18   SS      0
   16   18   SE     -9
   16   18   ES     -6
   16   18   EE     -7
   17   21   SS     -5
   17   21   SE     11
   17   21   ES      7
   17   21   EE     -4
   18   19   SS     -2
   18   19   SE      1
   18   19   ES      9
   18   19   EE     -3
************************************************************************
